(set-info :smt-lib-version 2.6)
(set-logic ALL)
(set-info :source |
Benchmarks used in the followin paper:
Big proof engines as little proof engines: new results on rewrite-based satisfiability procedure
Alessandro Armando, Maria Paola Bonacina, Silvio Ranise, Stephan Schulz. 
PDPAR'05
http://www.ai.dist.unige.it/pdpar05/


|)
(set-info :category "crafted")
(set-info :status unsat)

(declare-sort Element 0)
(declare-fun a_1167 () (Seq Element))
(declare-fun a_1169 () (Seq Element))
(declare-fun a_1171 () (Seq Element))
(declare-fun a_1173 () (Seq Element))
(declare-fun a_1175 () (Seq Element))
(declare-fun a_1177 () (Seq Element))
(declare-fun a_1179 () (Seq Element))
(declare-fun a_1181 () (Seq Element))
(declare-fun a_1183 () (Seq Element))
(declare-fun a_1185 () (Seq Element))
(declare-fun a_1187 () (Seq Element))
(declare-fun a_1189 () (Seq Element))
(declare-fun a_1191 () (Seq Element))
(declare-fun a_1193 () (Seq Element))
(declare-fun a_1195 () (Seq Element))
(declare-fun a_1197 () (Seq Element))
(declare-fun a_1199 () (Seq Element))
(declare-fun a_1201 () (Seq Element))
(declare-fun a_1203 () (Seq Element))
(declare-fun a_1205 () (Seq Element))
(declare-fun a_1206 () (Seq Element))
(declare-fun a_1207 () (Seq Element))
(declare-fun a_1209 () (Seq Element))
(declare-fun a_1211 () (Seq Element))
(declare-fun a_1213 () (Seq Element))
(declare-fun a_1215 () (Seq Element))
(declare-fun a_1217 () (Seq Element))
(declare-fun a_1219 () (Seq Element))
(declare-fun a_1221 () (Seq Element))
(declare-fun a_1223 () (Seq Element))
(declare-fun a_1225 () (Seq Element))
(declare-fun a_1227 () (Seq Element))
(declare-fun a_1229 () (Seq Element))
(declare-fun a_1231 () (Seq Element))
(declare-fun a_1233 () (Seq Element))
(declare-fun a_1235 () (Seq Element))
(declare-fun a_1237 () (Seq Element))
(declare-fun a_1239 () (Seq Element))
(declare-fun a_1241 () (Seq Element))
(declare-fun a_1243 () (Seq Element))
(declare-fun e_1166 () Element)
(declare-fun e_1168 () Element)
(declare-fun e_1170 () Element)
(declare-fun e_1172 () Element)
(declare-fun e_1174 () Element)
(declare-fun e_1176 () Element)
(declare-fun e_1178 () Element)
(declare-fun e_1180 () Element)
(declare-fun e_1182 () Element)
(declare-fun e_1184 () Element)
(declare-fun e_1186 () Element)
(declare-fun e_1188 () Element)
(declare-fun e_1190 () Element)
(declare-fun e_1192 () Element)
(declare-fun e_1194 () Element)
(declare-fun e_1196 () Element)
(declare-fun e_1198 () Element)
(declare-fun e_1200 () Element)
(declare-fun e_1202 () Element)
(declare-fun e_1204 () Element)
(declare-fun e_1208 () Element)
(declare-fun e_1210 () Element)
(declare-fun e_1212 () Element)
(declare-fun e_1214 () Element)
(declare-fun e_1216 () Element)
(declare-fun e_1218 () Element)
(declare-fun e_1220 () Element)
(declare-fun e_1222 () Element)
(declare-fun e_1224 () Element)
(declare-fun e_1226 () Element)
(declare-fun e_1228 () Element)
(declare-fun e_1230 () Element)
(declare-fun e_1232 () Element)
(declare-fun e_1234 () Element)
(declare-fun e_1236 () Element)
(declare-fun e_1238 () Element)
(declare-fun e_1240 () Element)
(declare-fun e_1242 () Element)
(declare-fun a1 () (Seq Element))
(declare-fun i0 () Int)
(declare-fun i1 () Int)
(declare-fun i2 () Int)
(declare-fun i3 () Int)
(declare-fun i4 () Int)
(declare-fun i5 () Int)
(declare-fun i7 () Int)
(declare-fun i8 () Int)
(declare-fun i9 () Int)
(assert (= a_1167 (seq.update a1 i8 (seq.unit e_1166))))
(assert (= a_1169 (seq.update a_1167 i0 (seq.unit e_1168))))
(assert (= a_1171 (seq.update a_1169 i4 (seq.unit e_1170))))
(assert (= a_1173 (seq.update a_1171 i5 (seq.unit e_1172))))
(assert (= a_1175 (seq.update a_1173 i9 (seq.unit e_1174))))
(assert (= a_1177 (seq.update a_1175 i2 (seq.unit e_1176))))
(assert (= a_1179 (seq.update a_1177 i5 (seq.unit e_1178))))
(assert (= a_1181 (seq.update a_1179 i4 (seq.unit e_1180))))
(assert (= a_1183 (seq.update a_1181 i3 (seq.unit e_1182))))
(assert (= a_1185 (seq.update a_1183 i0 (seq.unit e_1184))))
(assert (= a_1187 (seq.update a_1185 i3 (seq.unit e_1186))))
(assert (= a_1189 (seq.update a_1187 i4 (seq.unit e_1188))))
(assert (= a_1191 (seq.update a_1189 i9 (seq.unit e_1190))))
(assert (= a_1193 (seq.update a_1191 i7 (seq.unit e_1192))))
(assert (= a_1195 (seq.update a_1193 i5 (seq.unit e_1194))))
(assert (= a_1197 (seq.update a_1195 i1 (seq.unit e_1196))))
(assert (= a_1199 (seq.update a_1197 i8 (seq.unit e_1198))))
(assert (= a_1201 (seq.update a_1199 i1 (seq.unit e_1200))))
(assert (= a_1203 (seq.update a_1201 i5 (seq.unit e_1202))))
(assert (= a_1205 (seq.update a_1203 i7 (seq.unit e_1204))))
(assert (= a_1206 (seq.update a1 i0 (seq.unit e_1168))))
(assert (= a_1207 (seq.update a_1206 i8 (seq.unit e_1166))))
(assert (= a_1209 (seq.update a_1207 i5 (seq.unit e_1208))))
(assert (= a_1211 (seq.update a_1209 i4 (seq.unit e_1210))))
(assert (= a_1213 (seq.update a_1211 i9 (seq.unit e_1212))))
(assert (= a_1215 (seq.update a_1213 i2 (seq.unit e_1214))))
(assert (= a_1217 (seq.update a_1215 i4 (seq.unit e_1216))))
(assert (= a_1219 (seq.update a_1217 i5 (seq.unit e_1218))))
(assert (= a_1221 (seq.update a_1219 i0 (seq.unit e_1220))))
(assert (= a_1223 (seq.update a_1221 i3 (seq.unit e_1222))))
(assert (= a_1225 (seq.update a_1223 i3 (seq.unit e_1224))))
(assert (= a_1227 (seq.update a_1225 i4 (seq.unit e_1226))))
(assert (= a_1229 (seq.update a_1227 i7 (seq.unit e_1228))))
(assert (= a_1231 (seq.update a_1229 i9 (seq.unit e_1230))))
(assert (= a_1233 (seq.update a_1231 i1 (seq.unit e_1232))))
(assert (= a_1235 (seq.update a_1233 i5 (seq.unit e_1234))))
(assert (= a_1237 (seq.update a_1235 i8 (seq.unit e_1236))))
(assert (= a_1239 (seq.update a_1237 i1 (seq.unit e_1238))))
(assert (= a_1241 (seq.update a_1239 i7 (seq.unit e_1240))))
(assert (= a_1243 (seq.update a_1241 i5 (seq.unit e_1242))))
(assert (= e_1166 (seq.nth a1 i0)))
(assert (= e_1168 (seq.nth a1 i8)))
(assert (= e_1170 (seq.nth a_1169 i5)))
(assert (= e_1172 (seq.nth a_1169 i4)))
(assert (= e_1174 (seq.nth a_1173 i2)))
(assert (= e_1176 (seq.nth a_1173 i9)))
(assert (= e_1178 (seq.nth a_1177 i4)))
(assert (= e_1180 (seq.nth a_1177 i5)))
(assert (= e_1182 (seq.nth a_1181 i0)))
(assert (= e_1184 (seq.nth a_1181 i3)))
(assert (= e_1186 (seq.nth a_1185 i4)))
(assert (= e_1188 (seq.nth a_1185 i3)))
(assert (= e_1190 (seq.nth a_1189 i7)))
(assert (= e_1192 (seq.nth a_1189 i9)))
(assert (= e_1194 (seq.nth a_1193 i1)))
(assert (= e_1196 (seq.nth a_1193 i5)))
(assert (= e_1198 (seq.nth a_1197 i1)))
(assert (= e_1200 (seq.nth a_1197 i8)))
(assert (= e_1202 (seq.nth a_1201 i7)))
(assert (= e_1204 (seq.nth a_1201 i5)))
(assert (= e_1208 (seq.nth a_1207 i4)))
(assert (= e_1210 (seq.nth a_1207 i5)))
(assert (= e_1212 (seq.nth a_1211 i2)))
(assert (= e_1214 (seq.nth a_1211 i9)))
(assert (= e_1216 (seq.nth a_1215 i5)))
(assert (= e_1218 (seq.nth a_1215 i4)))
(assert (= e_1220 (seq.nth a_1219 i3)))
(assert (= e_1222 (seq.nth a_1219 i0)))
(assert (= e_1224 (seq.nth a_1223 i4)))
(assert (= e_1226 (seq.nth a_1223 i3)))
(assert (= e_1228 (seq.nth a_1227 i9)))
(assert (= e_1230 (seq.nth a_1227 i7)))
(assert (= e_1232 (seq.nth a_1231 i5)))
(assert (= e_1234 (seq.nth a_1231 i1)))
(assert (= e_1236 (seq.nth a_1235 i1)))
(assert (= e_1238 (seq.nth a_1235 i8)))
(assert (= e_1240 (seq.nth a_1239 i5)))
(assert (= e_1242 (seq.nth a_1239 i7)))
(assert (not (= a_1205 a_1243)))
(check-sat)
(exit)
